Sourcefiles/src/toetse/vlakte.lp
minimize
X,0501,SRX,A - X,0501,CWN,V + 
X,0501,SRX,V - X,0501,SRX,A + 
X,0501,MLD,A - X,0501,SRX,V + 
X,0501,MLD,V - X,0501,MLD,A + 
X,0501,PND,A - X,0501,MLD,V + 
X,0501,PND,V - X,0501,PND,A + 
X,0501,HEH,A - X,0501,PND,V + 
X,0502,HEH,V - X,0501,HEH,A + 
X,0502,PND,A - X,0502,HEH,V + 
X,0502,PND,V - X,0502,PND,A + 
X,0502,MLD,A - X,0502,PND,V + 
X,0502,MLD,V - X,0502,MLD,A + 
X,0502,SRX,A - X,0502,MLD,V + 
X,0502,SRX,V - X,0502,SRX,A + 
X,0502,CWN,A - X,0502,SRX,V + 
X,0503,CWN,V - X,0501,CWN,V + 
X,0503,SRX,A - X,0503,CWN,V + 
X,0503,SRX,V - X,0503,SRX,A + 
X,0503,MLD,A - X,0503,SRX,V + 
X,0503,MLD,V - X,0503,MLD,A + 
X,0503,PND,A - X,0503,MLD,V + 
X,0503,PND,V - X,0503,PND,A + 
X,0503,HEH,A - X,0503,PND,V + 
X,0504,HEH,V - X,0503,HEH,A + 
X,0504,PND,A - X,0504,HEH,V + 
X,0504,PND,V - X,0504,PND,A + 
X,0504,MLD,A - X,0504,PND,V + 
X,0504,MLD,V - X,0504,MLD,A + 
X,0504,SRX,A - X,0504,MLD,V + 
X,0504,SRX,V - X,0504,SRX,A + 
X,0504,CWN,A - X,0504,SRX,V + 
X,0505,CWN,V - X,0503,CWN,V + 
X,0505,SRX,A - X,0505,CWN,V + 
X,0505,SRX,V - X,0505,SRX,A + 
X,0505,MLD,A - X,0505,SRX,V + 
X,0505,MLD,V - X,0505,MLD,A + 
X,0505,PND,A - X,0505,MLD,V + 
X,0505,PND,V - X,0505,PND,A + 
X,0505,HEH,A - X,0505,PND,V + 
X,0506,HEH,V - X,0505,HEH,A + 
X,0506,PND,A - X,0506,HEH,V + 
X,0506,PND,V - X,0506,PND,A + 
X,0506,MLD,A - X,0506,PND,V + 
X,0506,MLD,V - X,0506,MLD,A + 
X,0506,SRX,A - X,0506,MLD,V + 
X,0506,SRX,V - X,0506,SRX,A + 
X,0506,CWN,A - X,0506,SRX,V

Subject to
X,0501,SRX,A - X,0501,CWN,V + 60 p,0501,SRX,A >= 6
X,0501,SRX,A - X,0501,CWN,V + 60 p,0501,SRX,A <= 6
X,0501,SRX,V - X,0501,SRX,A + 60 p,0501,SRX,V >= 1
X,0501,SRX,V - X,0501,SRX,A + 60 p,0501,SRX,V <= 1
X,0501,MLD,A - X,0501,SRX,V + 60 p,0501,MLD,A >= 4
X,0501,MLD,A - X,0501,SRX,V + 60 p,0501,MLD,A <= 4
X,0501,MLD,V - X,0501,MLD,A + 60 p,0501,MLD,V >= 1
X,0501,MLD,V - X,0501,MLD,A + 60 p,0501,MLD,V <= 1
X,0501,PND,A - X,0501,MLD,V + 60 p,0501,PND,A >= 5
X,0501,PND,A - X,0501,MLD,V + 60 p,0501,PND,A <= 5
X,0501,PND,V - X,0501,PND,A + 60 p,0501,PND,V >= 1
X,0501,PND,V - X,0501,PND,A + 60 p,0501,PND,V <= 1
X,0501,HEH,A - X,0501,PND,V + 60 p,0501,HEH,A >= 22
X,0501,HEH,A - X,0501,PND,V + 60 p,0501,HEH,A <= 22
X,0502,HEH,V - X,0501,HEH,A + 60 p,0502,HEH,V >= 9
X,0502,HEH,V - X,0501,HEH,A + 60 p,0502,HEH,V <= 9
X,0502,PND,A - X,0502,HEH,V + 60 p,0502,PND,A >= 21
X,0502,PND,A - X,0502,HEH,V + 60 p,0502,PND,A <= 21
X,0502,PND,V - X,0502,PND,A + 60 p,0502,PND,V >= 1
X,0502,PND,V - X,0502,PND,A + 60 p,0502,PND,V <= 1
X,0502,MLD,A - X,0502,PND,V + 60 p,0502,MLD,A >= 5
X,0502,MLD,A - X,0502,PND,V + 60 p,0502,MLD,A <= 5
X,0502,MLD,V - X,0502,MLD,A + 60 p,0502,MLD,V >= 1
X,0502,MLD,V - X,0502,MLD,A + 60 p,0502,MLD,V <= 1
X,0502,SRX,A - X,0502,MLD,V + 60 p,0502,SRX,A >= 4
X,0502,SRX,A - X,0502,MLD,V + 60 p,0502,SRX,A <= 4
X,0502,SRX,V - X,0502,SRX,A + 60 p,0502,SRX,V >= 1
X,0502,SRX,V - X,0502,SRX,A + 60 p,0502,SRX,V <= 1
X,0502,CWN,A - X,0502,SRX,V + 60 p,0502,CWN,A >= 6
X,0502,CWN,A - X,0502,SRX,V + 60 p,0502,CWN,A <= 6
X,0503,CWN,V - X,0501,CWN,V + 60 p,0503,CWN,V >= 20
X,0503,CWN,V - X,0501,CWN,V + 60 p,0503,CWN,V <= 20
X,0503,SRX,A - X,0503,CWN,V + 60 p,0503,SRX,A >= 6
X,0503,SRX,A - X,0503,CWN,V + 60 p,0503,SRX,A <= 6
X,0503,SRX,V - X,0503,SRX,A + 60 p,0503,SRX,V >= 1
X,0503,SRX,V - X,0503,SRX,A + 60 p,0503,SRX,V <= 1
X,0503,MLD,A - X,0503,SRX,V + 60 p,0503,MLD,A >= 4
X,0503,MLD,A - X,0503,SRX,V + 60 p,0503,MLD,A <= 4
X,0503,MLD,V - X,0503,MLD,A + 60 p,0503,MLD,V >= 1
X,0503,MLD,V - X,0503,MLD,A + 60 p,0503,MLD,V <= 1
X,0503,PND,A - X,0503,MLD,V + 60 p,0503,PND,A >= 5
X,0503,PND,A - X,0503,MLD,V + 60 p,0503,PND,A <= 5
X,0503,PND,V - X,0503,PND,A + 60 p,0503,PND,V >= 1
X,0503,PND,V - X,0503,PND,A + 60 p,0503,PND,V <= 1
X,0503,HEH,A - X,0503,PND,V + 60 p,0503,HEH,A >= 22
X,0503,HEH,A - X,0503,PND,V + 60 p,0503,HEH,A <= 22
X,0504,HEH,V - X,0503,HEH,A + 60 p,0504,HEH,V >= 9
X,0504,HEH,V - X,0503,HEH,A + 60 p,0504,HEH,V <= 9
X,0504,PND,A - X,0504,HEH,V + 60 p,0504,PND,A >= 21
X,0504,PND,A - X,0504,HEH,V + 60 p,0504,PND,A <= 21
X,0504,PND,V - X,0504,PND,A + 60 p,0504,PND,V >= 1
X,0504,PND,V - X,0504,PND,A + 60 p,0504,PND,V <= 1
X,0504,MLD,A - X,0504,PND,V + 60 p,0504,MLD,A >= 5
X,0504,MLD,A - X,0504,PND,V + 60 p,0504,MLD,A <= 5
X,0504,MLD,V - X,0504,MLD,A + 60 p,0504,MLD,V >= 1
X,0504,MLD,V - X,0504,MLD,A + 60 p,0504,MLD,V <= 1
X,0504,SRX,A - X,0504,MLD,V + 60 p,0504,SRX,A >= 4
X,0504,SRX,A - X,0504,MLD,V + 60 p,0504,SRX,A <= 4
X,0504,SRX,V - X,0504,SRX,A + 60 p,0504,SRX,V >= 1
X,0504,SRX,V - X,0504,SRX,A + 60 p,0504,SRX,V <= 1
X,0504,CWN,A - X,0504,SRX,V + 60 p,0504,CWN,A >= 6
X,0504,CWN,A - X,0504,SRX,V + 60 p,0504,CWN,A <= 6
X,0505,CWN,V - X,0503,CWN,V + 60 p,0505,CWN,V >= 20
X,0505,CWN,V - X,0503,CWN,V + 60 p,0505,CWN,V <= 20
X,0505,SRX,A - X,0505,CWN,V + 60 p,0505,SRX,A >= 6
X,0505,SRX,A - X,0505,CWN,V + 60 p,0505,SRX,A <= 6
X,0505,SRX,V - X,0505,SRX,A + 60 p,0505,SRX,V >= 1
X,0505,SRX,V - X,0505,SRX,A + 60 p,0505,SRX,V <= 1
X,0505,MLD,A - X,0505,SRX,V + 60 p,0505,MLD,A >= 4
X,0505,MLD,A - X,0505,SRX,V + 60 p,0505,MLD,A <= 4
X,0505,MLD,V - X,0505,MLD,A + 60 p,0505,MLD,V >= 1
X,0505,MLD,V - X,0505,MLD,A + 60 p,0505,MLD,V <= 1
X,0505,PND,A - X,0505,MLD,V + 60 p,0505,PND,A >= 5
X,0505,PND,A - X,0505,MLD,V + 60 p,0505,PND,A <= 5
X,0505,PND,V - X,0505,PND,A + 60 p,0505,PND,V >= 1
X,0505,PND,V - X,0505,PND,A + 60 p,0505,PND,V <= 1
X,0505,HEH,A - X,0505,PND,V + 60 p,0505,HEH,A >= 22
X,0505,HEH,A - X,0505,PND,V + 60 p,0505,HEH,A <= 22
X,0506,HEH,V - X,0505,HEH,A + 60 p,0506,HEH,V >= 9
X,0506,HEH,V - X,0505,HEH,A + 60 p,0506,HEH,V <= 9
X,0506,PND,A - X,0506,HEH,V + 60 p,0506,PND,A >= 21
X,0506,PND,A - X,0506,HEH,V + 60 p,0506,PND,A <= 21
X,0506,PND,V - X,0506,PND,A + 60 p,0506,PND,V >= 1
X,0506,PND,V - X,0506,PND,A + 60 p,0506,PND,V <= 1
X,0506,MLD,A - X,0506,PND,V + 60 p,0506,MLD,A >= 5
X,0506,MLD,A - X,0506,PND,V + 60 p,0506,MLD,A <= 5
X,0506,MLD,V - X,0506,MLD,A + 60 p,0506,MLD,V >= 1
X,0506,MLD,V - X,0506,MLD,A + 60 p,0506,MLD,V <= 1
X,0506,SRX,A - X,0506,MLD,V + 60 p,0506,SRX,A >= 4
X,0506,SRX,A - X,0506,MLD,V + 60 p,0506,SRX,A <= 4
X,0506,SRX,V - X,0506,SRX,A + 60 p,0506,SRX,V >= 1
X,0506,SRX,V - X,0506,SRX,A + 60 p,0506,SRX,V <= 1
X,0506,CWN,A - X,0506,SRX,V + 60 p,0506,CWN,A >= 6
X,0506,CWN,A - X,0506,SRX,V + 60 p,0506,CWN,A <= 6


bounds
0 <= X,0501,SRX,A <=59
0 <=  X,0501,CWN,V <= 59
0 <= X,0501,SRX,V <=59
0 <=  X,0501,SRX,A <= 59
0 <= X,0501,MLD,A <=59
0 <=  X,0501,SRX,V <= 59
0 <= X,0501,MLD,V <=59
0 <=  X,0501,MLD,A <= 59
0 <= X,0501,PND,A <=59
0 <=  X,0501,MLD,V <= 59
0 <= X,0501,PND,V <=59
0 <=  X,0501,PND,A <= 59
0 <= X,0501,HEH,A <=59
0 <=  X,0501,PND,V <= 59
0 <= X,0502,HEH,V <=59
0 <=  X,0501,HEH,A <= 59
0 <= X,0502,PND,A <=59
0 <=  X,0502,HEH,V <= 59
0 <= X,0502,PND,V <=59
0 <=  X,0502,PND,A <= 59
0 <= X,0502,MLD,A <=59
0 <=  X,0502,PND,V <= 59
0 <= X,0502,MLD,V <=59
0 <=  X,0502,MLD,A <= 59
0 <= X,0502,SRX,A <=59
0 <=  X,0502,MLD,V <= 59
0 <= X,0502,SRX,V <=59
0 <=  X,0502,SRX,A <= 59
0 <= X,0502,CWN,A <=59
0 <=  X,0502,SRX,V <= 59
0 <= X,0503,CWN,V <=59
0 <=  X,0501,CWN,V <= 59
0 <= X,0503,SRX,A <=59
0 <=  X,0503,CWN,V <= 59
0 <= X,0503,SRX,V <=59
0 <=  X,0503,SRX,A <= 59
0 <= X,0503,MLD,A <=59
0 <=  X,0503,SRX,V <= 59
0 <= X,0503,MLD,V <=59
0 <=  X,0503,MLD,A <= 59
0 <= X,0503,PND,A <=59
0 <=  X,0503,MLD,V <= 59
0 <= X,0503,PND,V <=59
0 <=  X,0503,PND,A <= 59
0 <= X,0503,HEH,A <=59
0 <=  X,0503,PND,V <= 59
0 <= X,0504,HEH,V <=59
0 <=  X,0503,HEH,A <= 59
0 <= X,0504,PND,A <=59
0 <=  X,0504,HEH,V <= 59
0 <= X,0504,PND,V <=59
0 <=  X,0504,PND,A <= 59
0 <= X,0504,MLD,A <=59
0 <=  X,0504,PND,V <= 59
0 <= X,0504,MLD,V <=59
0 <=  X,0504,MLD,A <= 59
0 <= X,0504,SRX,A <=59
0 <=  X,0504,MLD,V <= 59
0 <= X,0504,SRX,V <=59
0 <=  X,0504,SRX,A <= 59
0 <= X,0504,CWN,A <=59
0 <=  X,0504,SRX,V <= 59
0 <= X,0505,CWN,V <=59
0 <=  X,0503,CWN,V <= 59
0 <= X,0505,SRX,A <=59
0 <=  X,0505,CWN,V <= 59
0 <= X,0505,SRX,V <=59
0 <=  X,0505,SRX,A <= 59
0 <= X,0505,MLD,A <=59
0 <=  X,0505,SRX,V <= 59
0 <= X,0505,MLD,V <=59
0 <=  X,0505,MLD,A <= 59
0 <= X,0505,PND,A <=59
0 <=  X,0505,MLD,V <= 59
0 <= X,0505,PND,V <=59
0 <=  X,0505,PND,A <= 59
0 <= X,0505,HEH,A <=59
0 <=  X,0505,PND,V <= 59
0 <= X,0506,HEH,V <=59
0 <=  X,0505,HEH,A <= 59
0 <= X,0506,PND,A <=59
0 <=  X,0506,HEH,V <= 59
0 <= X,0506,PND,V <=59
0 <=  X,0506,PND,A <= 59
0 <= X,0506,MLD,A <=59
0 <=  X,0506,PND,V <= 59
0 <= X,0506,MLD,V <=59
0 <=  X,0506,MLD,A <= 59
0 <= X,0506,SRX,A <=59
0 <=  X,0506,MLD,V <= 59
0 <= X,0506,SRX,V <=59
0 <=  X,0506,SRX,A <= 59
0 <= X,0506,CWN,A <=59
0 <=  X,0506,SRX,V <= 59

binaries
p,0501,SRX,A
p,0501,SRX,V
p,0501,MLD,A
p,0501,MLD,V
p,0501,PND,A
p,0501,PND,V
p,0501,HEH,A
p,0502,HEH,V
p,0502,PND,A
p,0502,PND,V
p,0502,MLD,A
p,0502,MLD,V
p,0502,SRX,A
p,0502,SRX,V
p,0502,CWN,A
p,0503,CWN,V
p,0503,SRX,A
p,0503,SRX,V
p,0503,MLD,A
p,0503,MLD,V
p,0503,PND,A
p,0503,PND,V
p,0503,HEH,A
p,0504,HEH,V
p,0504,PND,A
p,0504,PND,V
p,0504,MLD,A
p,0504,MLD,V
p,0504,SRX,A
p,0504,SRX,V
p,0504,CWN,A
p,0505,CWN,V
p,0505,SRX,A
p,0505,SRX,V
p,0505,MLD,A
p,0505,MLD,V
p,0505,PND,A
p,0505,PND,V
p,0505,HEH,A
p,0506,HEH,V
p,0506,PND,A
p,0506,PND,V
p,0506,MLD,A
p,0506,MLD,V
p,0506,SRX,A
p,0506,SRX,V
p,0506,CWN,A

end
